(set-logic QF_NRA)
(set-info :source |Benchmarks generated from hycomp (https://es-static.fbk.eu/tools/hycomp/). BMC instances of non-linear hybrid automata taken from: Alessandro Cimatti, Sergio Mover, Stefano Tonetta, A quantifier-free SMT encoding of non-linear hybrid automata, FMCAD 2012 and Alessandro Cimatti, Sergio Mover, Stefano Tonetta, Quantier-free encoding of invariants for Hybrid Systems, Formal Methods in System Design. This instance solves a BMC problem of depth 2 and uses the encoding obtained with quantifier elimination using redlog encoding. Contacts: Sergio Mover (mover@fbk.eu), Stefano Tonetta (tonettas@fbk.eu), Alessandro Cimatti (cimatti@fbk.eu).|)
(set-info :smt-lib-version 2.0)
(set-info :category "industrial")
(set-info :status unsat)
;; MathSAT API call trace
;; generated on Mon Mar 19 10:43:17 2012
(declare-fun b.y__AT0 () Real)
(declare-fun b.counter.0__AT0 () Bool)
(declare-fun b.EVENT.0__AT0 () Bool)
(declare-fun b.counter.3__AT0 () Bool)
(declare-fun b.counter.1__AT0 () Bool)
(declare-fun b.bool_atom__AT1 () Bool)
(declare-fun b.x__AT1 () Real)
(declare-fun b.event_is_timed__AT2 () Bool)
(declare-fun b.g__AT0 () Real)
(declare-fun b.speed_y__AT0 () Real)
(declare-fun b.event_is_timed__AT0 () Bool)
(declare-fun b.bool_atom__AT2 () Bool)
(declare-fun b.y__AT2 () Real)
(declare-fun b.y__AT1 () Real)
(declare-fun b.time__AT2 () Real)
(declare-fun b.counter.2__AT0 () Bool)
(declare-fun b.counter.0__AT1 () Bool)
(declare-fun b.delta__AT2 () Real)
(declare-fun b.counter.1__AT1 () Bool)
(declare-fun b.x__AT2 () Real)
(declare-fun b.EVENT.0__AT2 () Bool)
(declare-fun b.counter.2__AT1 () Bool)
(declare-fun b.EVENT.1__AT2 () Bool)
(declare-fun b.counter.3__AT1 () Bool)
(declare-fun b.bool_atom__AT0 () Bool)
(declare-fun b.x__AT0 () Real)
(declare-fun b.EVENT.1__AT0 () Bool)
(declare-fun b.counter.0__AT2 () Bool)
(declare-fun b.speed_y__AT2 () Real)
(declare-fun b.delta__AT1 () Real)
(declare-fun b.speed_y__AT1 () Real)
(declare-fun b.counter.1__AT2 () Bool)
(declare-fun b.time__AT1 () Real)
(declare-fun b.EVENT.0__AT1 () Bool)
(declare-fun b.counter.2__AT2 () Bool)
(declare-fun b.time__AT0 () Real)
(declare-fun b.EVENT.1__AT1 () Bool)
(declare-fun b.counter.3__AT2 () Bool)
(declare-fun b.delta__AT0 () Real)
(declare-fun b.event_is_timed__AT1 () Bool)
(assert (let ((.def_520 (* b.x__AT2 b.x__AT2)))
(let ((.def_516 (* 5.0 b.delta__AT2)))
(let ((.def_517 (* b.delta__AT2 .def_516)))
(let ((.def_518 (* (- 1.0) .def_517)))
(let ((.def_523 (+ .def_518 .def_520)))
(let ((.def_515 (* b.speed_y__AT2 b.delta__AT2)))
(let ((.def_524 (+ .def_515 .def_523)))
(let ((.def_525 (+ b.y__AT2 .def_524)))
(let ((.def_526 (<= 0.0 .def_525)))
(let ((.def_556 (not .def_526)))
(let ((.def_538 (* (- 10.0) b.delta__AT2)))
(let ((.def_539 (+ b.speed_y__AT2 .def_538)))
(let ((.def_540 (<= 0.0 .def_539)))
(let ((.def_557 (and .def_540 .def_556)))
(let ((.def_549 (+ b.y__AT2 .def_520)))
(let ((.def_554 (<= 0.0 .def_549)))
(let ((.def_551 (<= b.speed_y__AT2 0.0 )))
(let ((.def_555 (or .def_551 .def_554)))
(let ((.def_558 (or .def_555 .def_557)))
(let ((.def_550 (<= .def_549 0.0 )))
(let ((.def_552 (and .def_550 .def_551)))
(let ((.def_544 (<= .def_539 0.0 )))
(let ((.def_545 (not .def_544)))
(let ((.def_542 (= .def_525 0.0 )))
(let ((.def_543 (not .def_542)))
(let ((.def_546 (or .def_543 .def_545)))
(let ((.def_541 (or .def_526 .def_540)))
(let ((.def_547 (and .def_541 .def_546)))
(let ((.def_528 (* 20.0 b.x__AT2)))
(let ((.def_529 (* b.x__AT2 .def_528)))
(let ((.def_402 (* b.speed_y__AT2 b.speed_y__AT2)))
(let ((.def_530 (+ .def_402 .def_529)))
(let ((.def_531 (* 20.0 b.y__AT2)))
(let ((.def_533 (+ .def_531 .def_530)))
(let ((.def_536 (<= .def_533 0.0 )))
(let ((.def_537 (not .def_536)))
(let ((.def_548 (or .def_537 .def_547)))
(let ((.def_553 (or .def_548 .def_552)))
(let ((.def_559 (and .def_553 .def_558)))
(let ((.def_534 (<= 0.0 .def_533)))
(let ((.def_535 (not .def_534)))
(let ((.def_560 (or .def_535 .def_559)))
(let ((.def_513 (<= 0.0 b.delta__AT2)))
(let ((.def_514 (not .def_513)))
(let ((.def_527 (or .def_514 .def_526)))
(let ((.def_561 (and .def_527 .def_560)))
(let ((.def_492 (not b.EVENT.0__AT2)))
(let ((.def_490 (not b.EVENT.1__AT2)))
(let ((.def_510 (and .def_490 .def_492)))
(let ((.def_511 (not .def_510)))
(let ((.def_562 (or .def_511 .def_561)))
(let ((.def_198 (not b.counter.0__AT1)))
(let ((.def_188 (not b.counter.1__AT1)))
(let ((.def_502 (and .def_188 .def_198)))
(let ((.def_506 (or b.counter.3__AT1 .def_502)))
(let ((.def_503 (or b.counter.2__AT1 .def_502)))
(let ((.def_193 (not b.counter.2__AT1)))
(let ((.def_501 (or .def_188 .def_193)))
(let ((.def_504 (and .def_501 .def_503)))
(let ((.def_207 (not b.counter.3__AT1)))
(let ((.def_505 (or .def_207 .def_504)))
(let ((.def_507 (and .def_505 .def_506)))
(let ((.def_495 (* (- 1.0) b.x__AT2)))
(let ((.def_496 (* b.x__AT2 .def_495)))
(let ((.def_497 (<= .def_496 b.y__AT2)))
(let ((.def_64 (<= b.g__AT0 10.0 )))
(let ((.def_63 (<= 8.0 b.g__AT0)))
(let ((.def_65 (and .def_63 .def_64)))
(let ((.def_498 (and .def_65 .def_497)))
(let ((.def_493 (or .def_490 .def_492)))
(let ((.def_9 (not b.counter.0__AT2)))
(let ((.def_6 (not b.counter.1__AT2)))
(let ((.def_483 (or .def_6 .def_9)))
(let ((.def_487 (or b.counter.3__AT2 .def_483)))
(let ((.def_484 (or b.counter.2__AT2 .def_483)))
(let ((.def_4 (not b.counter.2__AT2)))
(let ((.def_482 (or .def_4 .def_9)))
(let ((.def_485 (and .def_482 .def_484)))
(let ((.def_14 (not b.counter.3__AT2)))
(let ((.def_486 (or .def_14 .def_485)))
(let ((.def_488 (and .def_486 .def_487)))
(let ((.def_494 (and .def_488 .def_493)))
(let ((.def_499 (and .def_494 .def_498)))
(let ((.def_303 (<= 0.0 b.delta__AT1)))
(let ((.def_283 (not b.EVENT.0__AT1)))
(let ((.def_281 (not b.EVENT.1__AT1)))
(let ((.def_300 (and .def_281 .def_283)))
(let ((.def_301 (not .def_300)))
(let ((.def_478 (or .def_301 .def_303)))
(let ((.def_479 (or b.EVENT.1__AT1 .def_478)))
(let ((.def_389 (= b.bool_atom__AT1 b.bool_atom__AT2)))
(let ((.def_385 (= b.counter.0__AT2 b.counter.0__AT1)))
(let ((.def_383 (= b.counter.1__AT2 b.counter.1__AT1)))
(let ((.def_381 (= b.counter.2__AT2 b.counter.2__AT1)))
(let ((.def_380 (= b.counter.3__AT2 b.counter.3__AT1)))
(let ((.def_382 (and .def_380 .def_381)))
(let ((.def_384 (and .def_382 .def_383)))
(let ((.def_386 (and .def_384 .def_385)))
(let ((.def_474 (and .def_386 .def_389)))
(let ((.def_475 (or .def_301 .def_474)))
(let ((.def_476 (or b.EVENT.1__AT1 .def_475)))
(let ((.def_239 (* (- 1.0) b.g__AT0)))
(let ((.def_462 (* .def_239 b.delta__AT1)))
(let ((.def_463 (* (- 1.0) b.speed_y__AT2)))
(let ((.def_466 (+ .def_463 .def_462)))
(let ((.def_467 (+ b.speed_y__AT1 .def_466)))
(let ((.def_468 (= .def_467 0.0 )))
(let ((.def_452 (* b.delta__AT1 b.delta__AT1)))
(let ((.def_242 (* (/ 1 2) .def_239)))
(let ((.def_453 (* .def_242 .def_452)))
(let ((.def_454 (* (- 1.0) b.y__AT2)))
(let ((.def_458 (+ .def_454 .def_453)))
(let ((.def_305 (* b.speed_y__AT1 b.delta__AT1)))
(let ((.def_459 (+ .def_305 .def_458)))
(let ((.def_460 (+ b.y__AT1 .def_459)))
(let ((.def_461 (= .def_460 0.0 )))
(let ((.def_469 (and .def_461 .def_468)))
(let ((.def_372 (= b.x__AT1 b.x__AT2)))
(let ((.def_470 (and .def_372 .def_469)))
(let ((.def_471 (or .def_301 .def_470)))
(let ((.def_375 (= b.y__AT1 b.y__AT2)))
(let ((.def_447 (and .def_372 .def_375)))
(let ((.def_378 (= b.speed_y__AT1 b.speed_y__AT2)))
(let ((.def_448 (and .def_378 .def_447)))
(let ((.def_444 (= b.delta__AT1 0.0 )))
(let ((.def_445 (and .def_300 .def_444)))
(let ((.def_446 (not .def_445)))
(let ((.def_449 (or .def_446 .def_448)))
(let ((.def_450 (or b.EVENT.1__AT1 .def_449)))
(let ((.def_437 (and .def_378 .def_386)))
(let ((.def_438 (or b.bool_atom__AT1 .def_437)))
(let ((.def_413 (or .def_9 b.counter.0__AT1)))
(let ((.def_412 (or b.counter.0__AT2 .def_198)))
(let ((.def_414 (and .def_412 .def_413)))
(let ((.def_415 (and .def_6 .def_414)))
(let ((.def_416 (or b.counter.1__AT1 .def_415)))
(let ((.def_411 (or b.counter.1__AT2 .def_188)))
(let ((.def_417 (and .def_411 .def_416)))
(let ((.def_428 (and .def_4 .def_417)))
(let ((.def_429 (or b.counter.2__AT1 .def_428)))
(let ((.def_423 (and .def_6 .def_198)))
(let ((.def_424 (or b.counter.1__AT1 .def_423)))
(let ((.def_425 (and .def_411 .def_424)))
(let ((.def_426 (and b.counter.2__AT2 .def_425)))
(let ((.def_427 (or .def_193 .def_426)))
(let ((.def_430 (and .def_427 .def_429)))
(let ((.def_431 (and b.counter.3__AT2 .def_430)))
(let ((.def_432 (or b.counter.3__AT1 .def_431)))
(let ((.def_418 (and b.counter.2__AT2 .def_417)))
(let ((.def_419 (or b.counter.2__AT1 .def_418)))
(let ((.def_407 (or b.counter.1__AT2 b.counter.1__AT1)))
(let ((.def_405 (and .def_6 b.counter.0__AT2)))
(let ((.def_406 (or .def_188 .def_405)))
(let ((.def_408 (and .def_406 .def_407)))
(let ((.def_409 (and .def_4 .def_408)))
(let ((.def_410 (or .def_193 .def_409)))
(let ((.def_420 (and .def_410 .def_419)))
(let ((.def_421 (and .def_14 .def_420)))
(let ((.def_422 (or .def_207 .def_421)))
(let ((.def_433 (and .def_422 .def_432)))
(let ((.def_185 (* b.speed_y__AT1 b.speed_y__AT1)))
(let ((.def_403 (= .def_185 .def_402)))
(let ((.def_400 (+ b.speed_y__AT1 b.speed_y__AT2)))
(let ((.def_401 (= .def_400 0.0 )))
(let ((.def_404 (and .def_401 .def_403)))
(let ((.def_434 (and .def_404 .def_433)))
(let ((.def_399 (not b.bool_atom__AT1)))
(let ((.def_435 (or .def_399 .def_434)))
(let ((.def_395 (<= 0.0 b.speed_y__AT1)))
(let ((.def_396 (not .def_395)))
(let ((.def_286 (* (- 1.0) b.x__AT1)))
(let ((.def_287 (* b.x__AT1 .def_286)))
(let ((.def_394 (= b.y__AT1 .def_287)))
(let ((.def_397 (and .def_394 .def_396)))
(let ((.def_398 (= b.bool_atom__AT1 .def_397)))
(let ((.def_436 (and .def_398 .def_435)))
(let ((.def_439 (and .def_436 .def_438)))
(let ((.def_440 (and .def_372 .def_439)))
(let ((.def_441 (and .def_375 .def_440)))
(let ((.def_442 (or .def_300 .def_441)))
(let ((.def_443 (or b.EVENT.1__AT1 .def_442)))
(let ((.def_451 (and .def_443 .def_450)))
(let ((.def_472 (and .def_451 .def_471)))
(let ((.def_359 (= b.time__AT1 b.time__AT2)))
(let ((.def_373 (and .def_359 .def_372)))
(let ((.def_376 (and .def_373 .def_375)))
(let ((.def_379 (and .def_376 .def_378)))
(let ((.def_387 (and .def_379 .def_386)))
(let ((.def_390 (and .def_387 .def_389)))
(let ((.def_391 (or .def_281 .def_390)))
(let ((.def_362 (* (- 1.0) b.time__AT2)))
(let ((.def_365 (+ b.delta__AT1 .def_362)))
(let ((.def_366 (+ b.time__AT1 .def_365)))
(let ((.def_367 (= .def_366 0.0 )))
(let ((.def_368 (or .def_301 .def_367)))
(let ((.def_369 (or b.EVENT.1__AT1 .def_368)))
(let ((.def_360 (or .def_300 .def_359)))
(let ((.def_361 (or b.EVENT.1__AT1 .def_360)))
(let ((.def_370 (and .def_361 .def_369)))
(let ((.def_392 (and .def_370 .def_391)))
(let ((.def_356 (= .def_301 b.event_is_timed__AT2)))
(let ((.def_354 (= b.event_is_timed__AT1 .def_300)))
(let ((.def_357 (and .def_354 .def_356)))
(let ((.def_393 (and .def_357 .def_392)))
(let ((.def_473 (and .def_393 .def_472)))
(let ((.def_477 (and .def_473 .def_476)))
(let ((.def_480 (and .def_477 .def_479)))
(let ((.def_481 (and .def_281 .def_480)))
(let ((.def_500 (and .def_481 .def_499)))
(let ((.def_508 (and .def_500 .def_507)))
(let ((.def_310 (* b.x__AT1 b.x__AT1)))
(let ((.def_306 (* 5.0 b.delta__AT1)))
(let ((.def_307 (* b.delta__AT1 .def_306)))
(let ((.def_308 (* (- 1.0) .def_307)))
(let ((.def_313 (+ .def_308 .def_310)))
(let ((.def_314 (+ .def_305 .def_313)))
(let ((.def_315 (+ b.y__AT1 .def_314)))
(let ((.def_316 (<= 0.0 .def_315)))
(let ((.def_346 (not .def_316)))
(let ((.def_328 (* (- 10.0) b.delta__AT1)))
(let ((.def_329 (+ b.speed_y__AT1 .def_328)))
(let ((.def_330 (<= 0.0 .def_329)))
(let ((.def_347 (and .def_330 .def_346)))
(let ((.def_339 (+ b.y__AT1 .def_310)))
(let ((.def_344 (<= 0.0 .def_339)))
(let ((.def_341 (<= b.speed_y__AT1 0.0 )))
(let ((.def_345 (or .def_341 .def_344)))
(let ((.def_348 (or .def_345 .def_347)))
(let ((.def_340 (<= .def_339 0.0 )))
(let ((.def_342 (and .def_340 .def_341)))
(let ((.def_334 (<= .def_329 0.0 )))
(let ((.def_335 (not .def_334)))
(let ((.def_332 (= .def_315 0.0 )))
(let ((.def_333 (not .def_332)))
(let ((.def_336 (or .def_333 .def_335)))
(let ((.def_331 (or .def_316 .def_330)))
(let ((.def_337 (and .def_331 .def_336)))
(let ((.def_318 (* 20.0 b.x__AT1)))
(let ((.def_319 (* b.x__AT1 .def_318)))
(let ((.def_320 (+ .def_185 .def_319)))
(let ((.def_321 (* 20.0 b.y__AT1)))
(let ((.def_323 (+ .def_321 .def_320)))
(let ((.def_326 (<= .def_323 0.0 )))
(let ((.def_327 (not .def_326)))
(let ((.def_338 (or .def_327 .def_337)))
(let ((.def_343 (or .def_338 .def_342)))
(let ((.def_349 (and .def_343 .def_348)))
(let ((.def_324 (<= 0.0 .def_323)))
(let ((.def_325 (not .def_324)))
(let ((.def_350 (or .def_325 .def_349)))
(let ((.def_304 (not .def_303)))
(let ((.def_317 (or .def_304 .def_316)))
(let ((.def_351 (and .def_317 .def_350)))
(let ((.def_352 (or .def_301 .def_351)))
(let ((.def_34 (not b.counter.0__AT0)))
(let ((.def_32 (not b.counter.1__AT0)))
(let ((.def_35 (and .def_32 .def_34)))
(let ((.def_296 (or .def_35 b.counter.3__AT0)))
(let ((.def_293 (or .def_35 b.counter.2__AT0)))
(let ((.def_37 (not b.counter.2__AT0)))
(let ((.def_292 (or .def_32 .def_37)))
(let ((.def_294 (and .def_292 .def_293)))
(let ((.def_40 (not b.counter.3__AT0)))
(let ((.def_295 (or .def_40 .def_294)))
(let ((.def_297 (and .def_295 .def_296)))
(let ((.def_288 (<= .def_287 b.y__AT1)))
(let ((.def_289 (and .def_65 .def_288)))
(let ((.def_284 (or .def_281 .def_283)))
(let ((.def_274 (or .def_188 .def_198)))
(let ((.def_278 (or b.counter.3__AT1 .def_274)))
(let ((.def_275 (or b.counter.2__AT1 .def_274)))
(let ((.def_273 (or .def_193 .def_198)))
(let ((.def_276 (and .def_273 .def_275)))
(let ((.def_277 (or .def_207 .def_276)))
(let ((.def_279 (and .def_277 .def_278)))
(let ((.def_285 (and .def_279 .def_284)))
(let ((.def_290 (and .def_285 .def_289)))
(let ((.def_73 (<= 0.0 b.delta__AT0)))
(let ((.def_53 (not b.EVENT.0__AT0)))
(let ((.def_51 (not b.EVENT.1__AT0)))
(let ((.def_70 (and .def_51 .def_53)))
(let ((.def_71 (not .def_70)))
(let ((.def_269 (or .def_71 .def_73)))
(let ((.def_270 (or b.EVENT.1__AT0 .def_269)))
(let ((.def_172 (= b.bool_atom__AT0 b.bool_atom__AT1)))
(let ((.def_167 (= b.counter.0__AT0 b.counter.0__AT1)))
(let ((.def_164 (= b.counter.1__AT0 b.counter.1__AT1)))
(let ((.def_161 (= b.counter.2__AT0 b.counter.2__AT1)))
(let ((.def_159 (= b.counter.3__AT0 b.counter.3__AT1)))
(let ((.def_162 (and .def_159 .def_161)))
(let ((.def_165 (and .def_162 .def_164)))
(let ((.def_168 (and .def_165 .def_167)))
(let ((.def_265 (and .def_168 .def_172)))
(let ((.def_266 (or .def_71 .def_265)))
(let ((.def_267 (or b.EVENT.1__AT0 .def_266)))
(let ((.def_253 (* b.delta__AT0 .def_239)))
(let ((.def_254 (* (- 1.0) b.speed_y__AT1)))
(let ((.def_257 (+ .def_254 .def_253)))
(let ((.def_258 (+ b.speed_y__AT0 .def_257)))
(let ((.def_259 (= .def_258 0.0 )))
(let ((.def_243 (* b.delta__AT0 b.delta__AT0)))
(let ((.def_244 (* .def_242 .def_243)))
(let ((.def_246 (* (- 1.0) b.y__AT1)))
(let ((.def_249 (+ .def_246 .def_244)))
(let ((.def_76 (* b.delta__AT0 b.speed_y__AT0)))
(let ((.def_250 (+ .def_76 .def_249)))
(let ((.def_251 (+ b.y__AT0 .def_250)))
(let ((.def_252 (= .def_251 0.0 )))
(let ((.def_260 (and .def_252 .def_259)))
(let ((.def_150 (= b.x__AT0 b.x__AT1)))
(let ((.def_261 (and .def_150 .def_260)))
(let ((.def_262 (or .def_71 .def_261)))
(let ((.def_153 (= b.y__AT0 b.y__AT1)))
(let ((.def_234 (and .def_150 .def_153)))
(let ((.def_156 (= b.speed_y__AT0 b.speed_y__AT1)))
(let ((.def_235 (and .def_156 .def_234)))
(let ((.def_231 (= b.delta__AT0 0.0 )))
(let ((.def_232 (and .def_70 .def_231)))
(let ((.def_233 (not .def_232)))
(let ((.def_236 (or .def_233 .def_235)))
(let ((.def_237 (or b.EVENT.1__AT0 .def_236)))
(let ((.def_224 (and .def_156 .def_168)))
(let ((.def_225 (or b.bool_atom__AT0 .def_224)))
(let ((.def_199 (or b.counter.0__AT0 .def_198)))
(let ((.def_197 (or .def_34 b.counter.0__AT1)))
(let ((.def_200 (and .def_197 .def_199)))
(let ((.def_201 (and .def_188 .def_200)))
(let ((.def_202 (or b.counter.1__AT0 .def_201)))
(let ((.def_196 (or .def_32 b.counter.1__AT1)))
(let ((.def_203 (and .def_196 .def_202)))
(let ((.def_215 (and .def_193 .def_203)))
(let ((.def_216 (or b.counter.2__AT0 .def_215)))
(let ((.def_210 (and .def_34 .def_188)))
(let ((.def_211 (or b.counter.1__AT0 .def_210)))
(let ((.def_212 (and .def_196 .def_211)))
(let ((.def_213 (and b.counter.2__AT1 .def_212)))
(let ((.def_214 (or .def_37 .def_213)))
(let ((.def_217 (and .def_214 .def_216)))
(let ((.def_218 (and b.counter.3__AT1 .def_217)))
(let ((.def_219 (or b.counter.3__AT0 .def_218)))
(let ((.def_204 (and b.counter.2__AT1 .def_203)))
(let ((.def_205 (or b.counter.2__AT0 .def_204)))
(let ((.def_191 (or b.counter.1__AT0 b.counter.1__AT1)))
(let ((.def_189 (and b.counter.0__AT1 .def_188)))
(let ((.def_190 (or .def_32 .def_189)))
(let ((.def_192 (and .def_190 .def_191)))
(let ((.def_194 (and .def_192 .def_193)))
(let ((.def_195 (or .def_37 .def_194)))
(let ((.def_206 (and .def_195 .def_205)))
(let ((.def_208 (and .def_206 .def_207)))
(let ((.def_209 (or .def_40 .def_208)))
(let ((.def_220 (and .def_209 .def_219)))
(let ((.def_90 (* b.speed_y__AT0 b.speed_y__AT0)))
(let ((.def_186 (= .def_90 .def_185)))
(let ((.def_183 (+ b.speed_y__AT0 b.speed_y__AT1)))
(let ((.def_184 (= .def_183 0.0 )))
(let ((.def_187 (and .def_184 .def_186)))
(let ((.def_221 (and .def_187 .def_220)))
(let ((.def_182 (not b.bool_atom__AT0)))
(let ((.def_222 (or .def_182 .def_221)))
(let ((.def_178 (<= 0.0 b.speed_y__AT0)))
(let ((.def_179 (not .def_178)))
(let ((.def_58 (* (- 1.0) b.x__AT0)))
(let ((.def_59 (* b.x__AT0 .def_58)))
(let ((.def_177 (= b.y__AT0 .def_59)))
(let ((.def_180 (and .def_177 .def_179)))
(let ((.def_181 (= b.bool_atom__AT0 .def_180)))
(let ((.def_223 (and .def_181 .def_222)))
(let ((.def_226 (and .def_223 .def_225)))
(let ((.def_227 (and .def_150 .def_226)))
(let ((.def_228 (and .def_153 .def_227)))
(let ((.def_229 (or .def_70 .def_228)))
(let ((.def_230 (or b.EVENT.1__AT0 .def_229)))
(let ((.def_238 (and .def_230 .def_237)))
(let ((.def_263 (and .def_238 .def_262)))
(let ((.def_137 (= b.time__AT0 b.time__AT1)))
(let ((.def_151 (and .def_137 .def_150)))
(let ((.def_154 (and .def_151 .def_153)))
(let ((.def_157 (and .def_154 .def_156)))
(let ((.def_169 (and .def_157 .def_168)))
(let ((.def_173 (and .def_169 .def_172)))
(let ((.def_174 (or .def_51 .def_173)))
(let ((.def_140 (* (- 1.0) b.time__AT1)))
(let ((.def_143 (+ b.delta__AT0 .def_140)))
(let ((.def_144 (+ b.time__AT0 .def_143)))
(let ((.def_145 (= .def_144 0.0 )))
(let ((.def_146 (or .def_71 .def_145)))
(let ((.def_147 (or b.EVENT.1__AT0 .def_146)))
(let ((.def_138 (or .def_70 .def_137)))
(let ((.def_139 (or b.EVENT.1__AT0 .def_138)))
(let ((.def_148 (and .def_139 .def_147)))
(let ((.def_175 (and .def_148 .def_174)))
(let ((.def_134 (= .def_71 b.event_is_timed__AT1)))
(let ((.def_132 (= b.event_is_timed__AT0 .def_70)))
(let ((.def_135 (and .def_132 .def_134)))
(let ((.def_176 (and .def_135 .def_175)))
(let ((.def_264 (and .def_176 .def_263)))
(let ((.def_268 (and .def_264 .def_267)))
(let ((.def_271 (and .def_268 .def_270)))
(let ((.def_272 (and .def_51 .def_271)))
(let ((.def_291 (and .def_272 .def_290)))
(let ((.def_298 (and .def_291 .def_297)))
(let ((.def_82 (* b.x__AT0 b.x__AT0)))
(let ((.def_78 (* 5.0 b.delta__AT0)))
(let ((.def_79 (* b.delta__AT0 .def_78)))
(let ((.def_80 (* (- 1.0) .def_79)))
(let ((.def_85 (+ .def_80 .def_82)))
(let ((.def_86 (+ .def_76 .def_85)))
(let ((.def_87 (+ b.y__AT0 .def_86)))
(let ((.def_88 (<= 0.0 .def_87)))
(let ((.def_124 (not .def_88)))
(let ((.def_105 (* (- 1.0) b.speed_y__AT0)))
(let ((.def_106 (* 10.0 b.delta__AT0)))
(let ((.def_107 (+ .def_106 .def_105)))
(let ((.def_108 (<= .def_107 0.0 )))
(let ((.def_125 (and .def_108 .def_124)))
(let ((.def_117 (+ b.y__AT0 .def_82)))
(let ((.def_122 (<= 0.0 .def_117)))
(let ((.def_119 (<= b.speed_y__AT0 0.0 )))
(let ((.def_123 (or .def_119 .def_122)))
(let ((.def_126 (or .def_123 .def_125)))
(let ((.def_118 (<= .def_117 0.0 )))
(let ((.def_120 (and .def_118 .def_119)))
(let ((.def_112 (<= 0.0 .def_107)))
(let ((.def_113 (not .def_112)))
(let ((.def_110 (= .def_87 0.0 )))
(let ((.def_111 (not .def_110)))
(let ((.def_114 (or .def_111 .def_113)))
(let ((.def_109 (or .def_88 .def_108)))
(let ((.def_115 (and .def_109 .def_114)))
(let ((.def_92 (* 20.0 b.x__AT0)))
(let ((.def_93 (* b.x__AT0 .def_92)))
(let ((.def_94 (+ .def_90 .def_93)))
(let ((.def_95 (* 20.0 b.y__AT0)))
(let ((.def_97 (+ .def_95 .def_94)))
(let ((.def_100 (<= .def_97 0.0 )))
(let ((.def_101 (not .def_100)))
(let ((.def_116 (or .def_101 .def_115)))
(let ((.def_121 (or .def_116 .def_120)))
(let ((.def_127 (and .def_121 .def_126)))
(let ((.def_98 (<= 0.0 .def_97)))
(let ((.def_99 (not .def_98)))
(let ((.def_128 (or .def_99 .def_127)))
(let ((.def_74 (not .def_73)))
(let ((.def_89 (or .def_74 .def_88)))
(let ((.def_129 (and .def_89 .def_128)))
(let ((.def_130 (or .def_71 .def_129)))
(let ((.def_60 (<= .def_59 b.y__AT0)))
(let ((.def_66 (and .def_60 .def_65)))
(let ((.def_54 (or .def_51 .def_53)))
(let ((.def_44 (or .def_32 .def_34)))
(let ((.def_48 (or b.counter.3__AT0 .def_44)))
(let ((.def_45 (or b.counter.2__AT0 .def_44)))
(let ((.def_43 (or .def_34 .def_37)))
(let ((.def_46 (and .def_43 .def_45)))
(let ((.def_47 (or .def_40 .def_46)))
(let ((.def_49 (and .def_47 .def_48)))
(let ((.def_55 (and .def_49 .def_54)))
(let ((.def_67 (and .def_55 .def_66)))
(let ((.def_38 (and .def_35 .def_37)))
(let ((.def_41 (and .def_38 .def_40)))
(let ((.def_29 (= b.y__AT0 10.0 )))
(let ((.def_25 (= b.x__AT0 0.0 )))
(let ((.def_21 (= b.time__AT0 0.0 )))
(let ((.def_23 (and .def_21 b.event_is_timed__AT0)))
(let ((.def_26 (and .def_23 .def_25)))
(let ((.def_30 (and .def_26 .def_29)))
(let ((.def_42 (and .def_30 .def_41)))
(let ((.def_68 (and .def_42 .def_67)))
(let ((.def_10 (and .def_6 .def_9)))
(let ((.def_16 (or .def_10 b.counter.3__AT2)))
(let ((.def_11 (or b.counter.2__AT2 .def_10)))
(let ((.def_7 (or .def_4 .def_6)))
(let ((.def_12 (and .def_7 .def_11)))
(let ((.def_15 (or .def_12 .def_14)))
(let ((.def_17 (and .def_15 .def_16)))
(let ((.def_18 (not .def_17)))
(let ((.def_69 (and .def_18 .def_68)))
(let ((.def_131 (and .def_69 .def_130)))
(let ((.def_299 (and .def_131 .def_298)))
(let ((.def_353 (and .def_299 .def_352)))
(let ((.def_509 (and .def_353 .def_508)))
(let ((.def_563 (and .def_509 .def_562)))
.def_563))))))))))))))))))))))))))))))))))))))))))))))))))))))))))))))))))))))))))))))))))))))))))))))))))))))))))))))))))))))))))))))))))))))))))))))))))))))))))))))))))))))))))))))))))))))))))))))))))))))))))))))))))))))))))))))))))))))))))))))))))))))))))))))))))))))))))))))))))))))))))))))))))))))))))))))))))))))))))))))))))))))))))))))))))))))))))))))))))))))))))))))))))))))))))))))))))))))))))))))))))))))))))))))))))))))))))))))))))))))))))))))))))))))))))))))))))))))))))))))))))))
(check-sat)
(exit)
